10J3M/DAT/10J3MNNL-17.dat
10 3
16.1941 16.1941
20.9036 20.9036
23.1895 23.1895
27.4925 27.4925
22.6245 22.6245
13.1658 13.1658
17.4074 17.4074
23.7269 23.7269
29.2951 29.2951
16.856 16.856
210.8554