10J3M/SOL/10J3MNNL-17.sol
solution status: optimal solution found
objective value:                     85.2711666666666
x#1#1                                               1 	(obj:0)
x#2#1                                               1 	(obj:0)
x#3#1                                               1 	(obj:0)
x#4#2                               0.369575744997318 	(obj:0)
x#4#3                               0.630424255002681 	(obj:0)
x#5#3                                               1 	(obj:0)
x#6#2                                               1 	(obj:0)
x#7#1                               0.881569057147091 	(obj:0)
x#7#3                               0.118430942852909 	(obj:0)
x#8#2                                               1 	(obj:0)
x#9#3                                               1 	(obj:0)
x#10#2                                              1 	(obj:0)
z                                    85.2711666666666 	(obj:1)
